benchmarks/Factorization/qdimacs/factorization8.qdimacs
c Qdimacs file from skolem function generator
p cnf 95 298
a 87 88 89 90 91 92 93 94 0
e 79 80 81 82 83 84 85 86 1 2 3 4 5 6 7 8 9 10 11 12 13 14 15 16 17 18 19 20 21 22 23 24 25 26 27 28 29 30 31 32 33 34 35 36 37 38 39 40 41 42 43 44 45 46 47 48 49 50 51 52 53 54 55 56 57 58 59 60 61 62 63 64 65 66 67 68 69 70 71 72 73 74 75 76 77 78 95 0
4 5 52 56 -58 0
-4 58 0
-4 -56 0
-4 -5 0
-4 -52 0
5 88 -6 0
5 -88 6 0
-5 -88 -6 0
-5 88 6 0
6 -7 -47 0
6 7 47 0
-6 7 -47 0
-6 -7 47 0
7 8 36 0
-7 -8 0
-7 -36 0
8 -81 -86 -9 0
-8 81 0
-8 86 0
-8 9 0
9 -10 -34 0
9 10 34 0
-9 10 -34 0
-9 -10 34 0
10 11 21 0
-10 -11 0
-10 -21 0
11 -81 -85 -12 0
-11 81 0
-11 85 0
-11 12 0
12 13 -14 0
12 83 -13 14 0
12 81 -13 14 0
-12 13 14 0
-12 -13 -14 0
-12 -81 -83 14 0
13 -82 -84 0
-13 82 0
-13 84 0
14 15 18 0
-14 -15 0
-14 -18 0
15 16 17 0
-15 -16 0
-15 -17 0
16 -79 -80 -83 -84 0
-16 84 0
-16 79 0
-16 83 0
-16 80 0
17 -80 -81 -83 -84 0
-17 84 0
-17 80 0
-17 83 0
-17 81 0
18 -19 -20 0
18 19 20 0
-18 19 -20 0
-18 -19 20 0
19 -81 -84 0
-19 81 0
-19 84 0
20 -82 -83 0
-20 82 0
-20 83 0
21 22 -32 0
-21 -22 0
-21 32 0
22 23 25 0
-22 -23 0
-22 -25 0
23 -80 -85 -24 0
-23 80 0
-23 85 0
-23 24 0
24 15 -18 0
24 -15 18 0
-24 -15 -18 0
-24 15 18 0
25 -26 -30 0
-25 26 0
-25 30 0
26 -79 -85 -27 0
-26 79 0
-26 85 0
-26 27 0
27 -28 16 29 0
27 -28 -16 -29 0
27 28 16 -29 0
-27 28 -16 0
-27 28 29 0
-27 -16 29 0
-27 -28 16 -29 0
28 -81 -83 0
-28 81 0
-28 83 0
29 -80 -84 0
-29 80 0
-29 84 0
30 24 -31 0
30 -24 31 0
-30 -24 -31 0
-30 24 31 0
31 -80 -85 0
-31 80 0
-31 85 0
32 33 -12 0
32 -33 12 0
-32 -33 -12 0
-32 33 12 0
33 -81 -85 0
-33 81 0
-33 85 0
34 85 -35 0
34 -82 -85 35 0
-34 82 -85 0
-34 85 35 0
-34 -85 -35 0
35 -82 -84 -14 0
35 -82 -84 -28 0
-35 82 0
-35 84 0
-35 28 14 0
36 37 -45 0
-36 -37 0
-36 45 0
37 38 40 0
-37 -38 0
-37 -40 0
38 -80 -86 -39 0
-38 80 0
-38 86 0
-38 39 0
39 -22 -32 0
39 22 32 0
-39 22 -32 0
-39 -22 32 0
40 -41 -43 0
-40 41 0
-40 43 0
41 -79 -86 -42 0
-41 79 0
-41 86 0
-41 42 0
42 26 -30 0
42 -26 30 0
-42 -26 -30 0
-42 26 30 0
43 44 -39 0
43 -44 39 0
-43 -44 -39 0
-43 44 39 0
44 -80 -86 0
-44 80 0
-44 86 0
45 46 -9 0
45 -46 9 0
-45 -46 -9 0
-45 46 9 0
46 -81 -86 0
-46 81 0
-46 86 0
47 -48 -49 0
47 48 49 0
-47 48 -49 0
-47 -48 49 0
48 -82 -86 0
-48 82 0
-48 86 0
49 50 51 0
-49 -50 0
-49 -51 0
50 -85 -35 0
-50 85 0
-50 35 0
51 10 -34 0
-51 -10 0
-51 34 0
52 -87 -53 0
52 87 53 0
-52 87 -53 0
-52 -87 53 0
53 54 55 0
-53 -54 0
-53 -55 0
54 -82 -86 49 0
-54 82 0
-54 86 0
-54 -49 0
55 7 -47 0
-55 -7 0
-55 47 0
56 89 -57 0
56 -89 57 0
-56 -89 -57 0
-56 89 57 0
57 -37 -45 0
57 37 45 0
-57 37 -45 0
-57 -37 45 0
58 91 59 61 -63 0
58 -91 59 -61 -63 0
-58 63 0
-58 91 -61 0
-58 -59 0
-58 -91 61 0
59 90 -60 0
59 -90 60 0
-59 -90 -60 0
-59 90 60 0
60 41 -43 0
60 -41 43 0
-60 -41 -43 0
-60 41 43 0
61 42 -62 0
61 -42 62 0
-61 -42 -62 0
-61 42 62 0
62 -79 -86 0
-62 79 0
-62 86 0
63 92 64 66 -70 0
63 -92 -64 66 -70 0
-63 -66 0
-63 92 -64 0
-63 70 0
-63 -92 64 0
64 65 -27 0
64 -65 27 0
-64 -65 -27 0
-64 65 27 0
65 -79 -85 0
-65 79 0
-65 85 0
66 93 -67 0
66 -93 67 0
-66 -93 -67 0
-66 93 67 0
67 68 -69 0
67 -68 69 0
-67 -68 -69 0
-67 68 69 0
68 -80 -83 0
-68 80 0
-68 83 0
69 -79 -84 0
-69 79 0
-69 84 0
70 71 73 74 0
-70 -71 0
-70 -74 0
-70 -73 0
71 -79 -72 0
71 -79 -83 94 0
-71 79 0
-71 83 72 0
-71 -94 72 0
72 80 81 82 0
-72 -80 0
-72 -82 0
-72 -81 0
73 83 -94 0
73 79 -94 0
-73 94 0
-73 -79 -83 0
74 -83 84 85 86 0
-74 -86 0
-74 -85 0
-74 83 0
-74 -84 0
75 71 73 74 -76 0
-75 76 0
-75 -74 0
-75 -71 0
-75 -73 0
76 92 64 66 -77 0
76 -92 -64 66 -77 0
-76 -66 0
-76 92 -64 0
-76 77 0
-76 -92 64 0
77 91 59 61 -78 0
77 -91 59 -61 -78 0
-77 78 0
-77 91 -61 0
-77 -59 0
-77 -91 61 0
78 5 52 56 0
-78 -5 0
-78 -56 0
-78 -52 0
95 0
2 -4 0
-2 4 0
3 -75 0
-3 75 0
3 0

